c WARNING: for repeatability, setting FPU to use double precision
d VARIABLES            120278       
d CONSTRAINTS          534669       
c ============================[ Problem Statistics ]=============================
c |                                                                             |
c |  Number of variables:        120278                                         |
c |  Number of clauses:          534669                                         |
c |  Parse time:                   0.09 s                                       |
c |                                                                             |
c ============================[ Search Statistics ]==============================
c | Conflicts |          ORIGINAL         |          LEARNT          | Progress |
c |           |    Vars  Clauses Literals |    Limit  Clauses Lit/Cl |          |
c ===============================================================================
c |       100 |  101988   482585  1169688 |   176947      100     45 | 15.206 % |
c |       250 |  101988   482585  1169688 |   194642      250     75 | 15.206 % |
c |       475 |  101988   482585  1169688 |   214106      475     63 | 15.206 % |
c |       812 |  101988   482585  1169688 |   235517      812     69 | 15.206 % |
c |      1318 |  101988   482585  1169688 |   259069     1318     94 | 15.206 % |
c |      2077 |  101988   482585  1169688 |   284976     2077     98 | 15.206 % |
c |      3216 |  101988   482585  1169688 |   313473     3216    102 | 15.206 % |
c |      4924 |  101988   482585  1169688 |   344821     4924    107 | 15.206 % |
c |      7486 |  101988   482585  1169688 |   379303     7486    146 | 15.206 % |
c |     11330 |  101988   482585  1169688 |   417233    11330    146 | 15.206 % |
c |     17096 |  101988   482585  1169688 |   458957    17096    154 | 15.206 % |
c |     25745 |  101988   482585  1169688 |   504852    25745    153 | 15.206 % |
c |     38719 |  101988   482585  1169688 |   555338    38719    157 | 15.206 % |
c |     58180 |  101988   482585  1169688 |   610871    58180    161 | 15.206 % |
c ===============================================================================
c restarts              : 204
c conflicts             : 66389          (2306 /sec)
c decisions             : 324278         (0.00 % random) (11265 /sec)
c propagations          : 146045278      (5073518 /sec)
c conflict literals     : 11256140       (14.08 % deleted)
d RESTARTS             204
d FAILURES             66389        
d NODES                324278       
d BACKTRACKS           324278       
d PROPAGATIONS         146045278    
d NOGOODSIZE           169.55 
d MEMORY               116.00 
d TIME                 28.7858 

s SATISFIABLE
